69
1 0 31
2 0 34
2 1 34
3 0 11
3 1 43
3 2 41
4 0 7
4 1 17
4 2 21
4 3 15
5 0 1
5 1 42
5 2 38
5 3 4
5 4 40
6 0 2
6 1 24
6 2 33
6 3 33
6 4 16
6 5 25
7 0 41
7 1 4
7 2 6
7 3 38
7 4 41
7 5 16
7 6 35
8 0 39
8 1 6
8 2 25
8 3 21
8 4 4
8 5 9
8 6 26
8 7 7
9 0 26
9 1 41
9 2 41
9 3 40
9 4 1
9 5 18
9 6 40
9 7 14
9 8 25
10 0 34
10 1 18
10 2 19
10 3 18
10 4 44
10 5 25
10 6 27
10 7 21
10 8 5
10 9 7
11 0 12
11 1 34
11 2 40
11 3 35
11 4 3
11 5 41
11 6 13
11 7 28
11 8 17
11 9 37
11 10 18
12 0 30
12 1 44
12 2 12
12 3 27
12 4 40
12 5 10
12 6 44
12 7 25
12 8 10
12 9 5
12 10 33
12 11 13
13 0 29
13 1 16
13 2 10
13 3 37
13 4 42
13 5 43
13 6 22
13 7 37
13 8 28
13 9 38
13 10 7
13 11 12
13 12 37
14 0 7
14 1 29
14 2 5
14 3 43
14 4 19
14 5 27
14 6 32
14 7 34
14 8 27
14 9 19
14 10 41
14 11 6
14 12 2
14 13 7
15 0 33
15 1 10
15 2 36
15 3 19
15 4 17
15 5 14
15 6 31
15 7 10
15 8 27
15 9 27
15 10 1
15 11 26
15 12 22
15 13 38
15 14 19
16 0 13
16 1 36
16 2 32
16 3 15
16 4 29
16 5 40
16 6 42
16 7 21
16 8 24
16 9 33
16 10 42
16 11 43
16 12 15
16 13 26
16 14 16
16 15 34
17 0 27
17 1 44
17 2 24
17 3 11
17 4 27
17 5 33
17 6 18
17 7 24
17 8 35
17 9 28
17 10 25
17 11 36
17 12 1
17 13 39
17 14 3
17 15 15
17 16 16
18 0 11
18 1 3
18 2 25
18 3 9
18 4 30
18 5 11
18 6 42
18 7 20
18 8 43
18 9 36
18 10 34
18 11 3
18 12 14
18 13 10
18 14 38
18 15 37
18 16 5
18 17 15
19 0 2
19 1 21
19 2 29
19 3 12
19 4 34
19 5 16
19 6 38
19 7 18
19 8 14
19 9 22
19 10 29
19 11 12
19 12 17
19 13 17
19 14 36
19 15 42
19 16 36
19 17 5
19 18 34
20 0 37
20 1 15
20 2 32
20 3 10
20 4 17
20 5 41
20 6 27
20 7 26
20 8 9
20 9 25
20 10 30
20 11 4
20 12 7
20 13 8
20 14 15
20 15 17
20 16 25
20 17 25
20 18 26
20 19 17
21 0 8
21 1 2
21 2 3
21 3 41
21 4 18
21 5 11
21 6 14
21 7 32
21 8 2
21 9 32
21 10 41
21 11 16
21 12 6
21 13 29
21 14 20
21 15 8
21 16 8
21 17 8
21 18 40
21 19 4
21 20 29
22 0 10
22 1 20
22 2 34
22 3 7
22 4 27
22 5 29
22 6 36
22 7 19
22 8 42
22 9 11
22 10 41
22 11 18
22 12 23
22 13 9
22 14 36
22 15 14
22 16 7
22 17 44
22 18 32
22 19 18
22 20 7
22 21 37
23 0 41
23 1 41
23 2 3
23 3 18
23 4 44
23 5 15
23 6 22
23 7 33
23 8 8
23 9 39
23 10 44
23 11 37
23 12 10
23 13 44
23 14 30
23 15 6
23 16 44
23 17 15
23 18 15
23 19 15
23 20 18
23 21 11
23 22 37
24 0 40
24 1 39
24 2 32
24 3 14
24 4 14
24 5 29
24 6 35
24 7 25
24 8 34
24 9 40
24 10 21
24 11 17
24 12 3
24 13 34
24 14 23
24 15 31
24 16 44
24 17 26
24 18 4
24 19 12
24 20 4
24 21 18
24 22 41
24 23 29
25 0 32
25 1 26
25 2 14
25 3 2
25 4 5
25 5 20
25 6 18
25 7 9
25 8 28
25 9 35
25 10 16
25 11 21
25 12 5
25 13 43
25 14 22
25 15 32
25 16 18
25 17 4
25 18 21
25 19 23
25 20 31
25 21 3
25 22 42
25 23 44
25 24 23
26 0 33
26 1 23
26 2 13
26 3 41
26 4 28
26 5 35
26 6 17
26 7 25
26 8 20
26 9 35
26 10 35
26 11 5
26 12 43
26 13 8
26 14 19
26 15 16
26 16 32
26 17 42
26 18 19
26 19 10
26 20 9
26 21 19
26 22 6
26 23 11
26 24 11
26 25 8
27 0 8
27 1 16
27 2 20
27 3 24
27 4 21
27 5 8
27 6 21
27 7 17
27 8 26
27 9 27
27 10 4
27 11 4
27 12 30
27 13 9
27 14 5
27 15 34
27 16 14
27 17 7
27 18 28
27 19 26
27 20 22
27 21 29
27 22 44
27 23 10
27 24 26
27 25 27
27 26 26
28 0 8
28 1 24
28 2 24
28 3 28
28 4 14
28 5 11
28 6 40
28 7 4
28 8 39
28 9 29
28 10 41
28 11 20
28 12 43
28 13 25
28 14 1
28 15 19
28 16 1
28 17 40
28 18 20
28 19 19
28 20 35
28 21 36
28 22 16
28 23 19
28 24 12
28 25 3
28 26 27
28 27 23
29 0 1
29 1 22
29 2 14
29 3 25
29 4 2
29 5 27
29 6 19
29 7 24
29 8 11
29 9 16
29 10 3
29 11 9
29 12 10
29 13 42
29 14 38
29 15 33
29 16 28
29 17 2
29 18 27
29 19 11
29 20 19
29 21 25
29 22 22
29 23 44
29 24 43
29 25 24
29 26 14
29 27 7
29 28 27
30 0 3
30 1 44
30 2 17
30 3 10
30 4 17
30 5 22
30 6 13
30 7 42
30 8 12
30 9 40
30 10 32
30 11 39
30 12 22
30 13 18
30 14 26
30 15 24
30 16 17
30 17 7
30 18 15
30 19 37
30 20 33
30 21 21
30 22 28
30 23 42
30 24 32
30 25 41
30 26 30
30 27 3
30 28 13
30 29 40
31 0 2
31 1 31
31 2 4
31 3 11
31 4 17
31 5 39
31 6 28
31 7 19
31 8 8
31 9 31
31 10 18
31 11 41
31 12 5
31 13 34
31 14 20
31 15 20
31 16 10
31 17 27
31 18 38
31 19 9
31 20 31
31 21 7
31 22 38
31 23 18
31 24 32
31 25 43
31 26 29
31 27 33
31 28 11
31 29 20
31 30 42
32 0 23
32 1 8
32 2 20
32 3 5
32 4 19
32 5 23
32 6 6
32 7 17
32 8 29
32 9 18
32 10 36
32 11 12
32 12 14
32 13 7
32 14 7
32 15 14
32 16 29
32 17 33
32 18 41
32 19 41
32 20 24
32 21 11
32 22 16
32 23 27
32 24 39
32 25 7
32 26 29
32 27 12
32 28 19
32 29 36
32 30 8
32 31 2
33 0 41
33 1 7
33 2 24
33 3 37
33 4 15
33 5 24
33 6 16
33 7 44
33 8 37
33 9 23
33 10 27
33 11 3
33 12 40
33 13 22
33 14 42
33 15 8
33 16 21
33 17 1
33 18 40
33 19 8
33 20 44
33 21 42
33 22 19
33 23 31
33 24 4
33 25 31
33 26 2
33 27 32
33 28 41
33 29 17
33 30 3
33 31 11
33 32 21
34 0 20
34 1 23
34 2 17
34 3 24
34 4 23
34 5 6
34 6 29
34 7 44
34 8 39
34 9 13
34 10 23
34 11 25
34 12 18
34 13 34
34 14 19
34 15 14
34 16 26
34 17 32
34 18 37
34 19 27
34 20 37
34 21 25
34 22 38
34 23 2
34 24 33
34 25 42
34 26 38
34 27 31
34 28 18
34 29 25
34 30 40
34 31 43
34 32 5
34 33 35
35 0 31
35 1 17
35 2 12
35 3 12
35 4 37
35 5 16
35 6 12
35 7 41
35 8 14
35 9 6
35 10 18
35 11 1
35 12 23
35 13 30
35 14 14
35 15 22
35 16 10
35 17 34
35 18 21
35 19 9
35 20 20
35 21 22
35 22 36
35 23 8
35 24 39
35 25 36
35 26 14
35 27 43
35 28 28
35 29 36
35 30 7
35 31 29
35 32 7
35 33 42
35 34 2
36 0 40
36 1 39
36 2 21
36 3 15
36 4 20
36 5 31
36 6 25
36 7 31
36 8 39
36 9 13
36 10 5
36 11 36
36 12 10
36 13 19
36 14 4
36 15 25
36 16 5
36 17 42
36 18 3
36 19 4
36 20 18
36 21 33
36 22 37
36 23 44
36 24 18
36 25 31
36 26 43
36 27 11
36 28 16
36 29 4
36 30 12
36 31 39
36 32 19
36 33 23
36 34 12
36 35 10
37 0 36
37 1 1
37 2 38
37 3 35
37 4 16
37 5 30
37 6 11
37 7 5
37 8 39
37 9 28
37 10 29
37 11 22
37 12 17
37 13 20
37 14 8
37 15 44
37 16 12
37 17 33
37 18 44
37 19 19
37 20 34
37 21 33
37 22 1
37 23 2
37 24 3
37 25 12
37 26 6
37 27 15
37 28 27
37 29 17
37 30 43
37 31 44
37 32 38
37 33 7
37 34 10
37 35 41
37 36 13
38 0 5
38 1 38
38 2 43
38 3 18
38 4 36
38 5 38
38 6 34
38 7 20
38 8 10
38 9 10
38 10 31
38 11 17
38 12 4
38 13 7
38 14 4
38 15 36
38 16 8
38 17 9
38 18 40
38 19 43
38 20 22
38 21 15
38 22 36
38 23 26
38 24 24
38 25 14
38 26 13
38 27 22
38 28 9
38 29 42
38 30 33
38 31 17
38 32 5
38 33 41
38 34 30
38 35 33
38 36 10
38 37 25
39 0 28
39 1 6
39 2 14
39 3 20
39 4 28
39 5 19
39 6 14
39 7 37
39 8 24
39 9 11
39 10 33
39 11 18
39 12 14
39 13 14
39 14 3
39 15 24
39 16 12
39 17 38
39 18 2
39 19 18
39 20 32
39 21 28
39 22 39
39 23 25
39 24 30
39 25 14
39 26 35
39 27 25
39 28 14
39 29 39
39 30 40
39 31 1
39 32 25
39 33 30
39 34 42
39 35 4
39 36 2
39 37 2
39 38 41
40 0 15
40 1 2
40 2 30
40 3 5
40 4 13
40 5 20
40 6 16
40 7 18
40 8 17
40 9 25
40 10 19
40 11 21
40 12 37
40 13 23
40 14 11
40 15 5
40 16 36
40 17 27
40 18 28
40 19 20
40 20 7
40 21 23
40 22 39
40 23 10
40 24 44
40 25 36
40 26 36
40 27 5
40 28 15
40 29 21
40 30 2
40 31 42
40 32 26
40 33 42
40 34 30
40 35 13
40 36 10
40 37 31
40 38 21
40 39 21
41 0 23
41 1 9
41 2 31
41 3 17
41 4 29
41 5 44
41 6 17
41 7 24
41 8 29
41 9 11
41 10 41
41 11 44
41 12 14
41 13 38
41 14 41
41 15 18
41 16 35
41 17 40
41 18 30
41 19 5
41 20 20
41 21 18
41 22 14
41 23 14
41 24 15
41 25 13
41 26 34
41 27 11
41 28 14
41 29 11
41 30 4
41 31 17
41 32 27
41 33 29
41 34 28
41 35 43
41 36 24
41 37 5
41 38 13
41 39 4
41 40 16
42 0 38
42 1 32
42 2 26
42 3 42
42 4 19
42 5 12
42 6 3
42 7 9
42 8 10
42 9 43
42 10 6
42 11 30
42 12 28
42 13 37
42 14 22
42 15 8
42 16 15
42 17 25
42 18 19
42 19 24
42 20 21
42 21 39
42 22 40
42 23 17
42 24 5
42 25 30
42 26 21
42 27 27
42 28 42
42 29 13
42 30 21
42 31 25
42 32 27
42 33 29
42 34 4
42 35 13
42 36 17
42 37 19
42 38 34
42 39 27
42 40 24
42 41 42
43 0 30
43 1 16
43 2 43
43 3 38
43 4 4
43 5 21
43 6 6
43 7 29
43 8 12
43 9 29
43 10 30
43 11 29
43 12 44
43 13 29
43 14 33
43 15 38
43 16 36
43 17 31
43 18 17
43 19 42
43 20 31
43 21 7
43 22 11
43 23 16
43 24 28
43 25 42
43 26 19
43 27 1
43 28 23
43 29 2
43 30 20
43 31 18
43 32 7
43 33 43
43 34 28
43 35 33
43 36 9
43 37 20
43 38 40
43 39 35
43 40 33
43 41 14
43 42 18
44 0 18
44 1 16
44 2 16
44 3 24
44 4 34
44 5 3
44 6 7
44 7 17
44 8 1
44 9 29
44 10 21
44 11 21
44 12 27
44 13 8
44 14 38
44 15 19
44 16 43
44 17 14
44 18 5
44 19 3
44 20 34
44 21 17
44 22 5
44 23 38
44 24 7
44 25 5
44 26 13
44 27 35
44 28 34
44 29 39
44 30 2
44 31 5
44 32 19
44 33 40
44 34 26
44 35 24
44 36 30
44 37 41
44 38 4
44 39 35
44 40 23
44 41 28
44 42 10
44 43 28
45 0 14
45 1 42
45 2 18
45 3 36
45 4 18
45 5 28
45 6 6
45 7 16
45 8 5
45 9 8
45 10 24
45 11 17
45 12 43
45 13 31
45 14 2
45 15 10
45 16 25
45 17 14
45 18 15
45 19 31
45 20 10
45 21 16
45 22 26
45 23 26
45 24 19
45 25 18
45 26 8
45 27 29
45 28 33
45 29 35
45 30 26
45 31 8
45 32 22
45 33 3
45 34 18
45 35 12
45 36 34
45 37 3
45 38 4
45 39 39
45 40 6
45 41 38
45 42 10
45 43 44
45 44 19
46 0 5
46 1 31
46 2 23
46 3 15
46 4 34
46 5 28
46 6 43
46 7 30
46 8 34
46 9 39
46 10 35
46 11 28
46 12 11
46 13 40
46 14 41
46 15 15
46 16 34
46 17 9
46 18 7
46 19 20
46 20 3
46 21 9
46 22 7
46 23 36
46 24 32
46 25 31
46 26 7
46 27 13
46 28 30
46 29 16
46 30 6
46 31 2
46 32 4
46 33 14
46 34 17
46 35 20
46 36 29
46 37 15
46 38 9
46 39 42
46 40 43
46 41 8
46 42 43
46 43 26
46 44 21
46 45 23
47 0 37
47 1 10
47 2 7
47 3 9
47 4 36
47 5 28
47 6 16
47 7 24
47 8 1
47 9 30
47 10 40
47 11 22
47 12 11
47 13 32
47 14 24
47 15 20
47 16 12
47 17 31
47 18 31
47 19 39
47 20 21
47 21 22
47 22 25
47 23 41
47 24 29
47 25 27
47 26 12
47 27 21
47 28 15
47 29 13
47 30 40
47 31 42
47 32 23
47 33 34
47 34 5
47 35 12
47 36 4
47 37 33
47 38 36
47 39 37
47 40 10
47 41 37
47 42 20
47 43 32
47 44 15
47 45 15
47 46 18
48 0 11
48 1 25
48 2 32
48 3 35
48 4 23
48 5 38
48 6 15
48 7 34
48 8 38
48 9 7
48 10 26
48 11 36
48 12 5
48 13 40
48 14 26
48 15 33
48 16 2
48 17 24
48 18 31
48 19 34
48 20 28
48 21 7
48 22 38
48 23 14
48 24 41
48 25 20
48 26 9
48 27 20
48 28 23
48 29 9
48 30 40
48 31 35
48 32 36
48 33 16
48 34 35
48 35 22
48 36 16
48 37 31
48 38 7
48 39 39
48 40 33
48 41 24
48 42 12
48 43 8
48 44 33
48 45 5
48 46 5
48 47 3
49 0 18
49 1 19
49 2 10
49 3 39
49 4 7
49 5 42
49 6 11
49 7 9
49 8 18
49 9 6
49 10 7
49 11 30
49 12 36
49 13 33
49 14 41
49 15 20
49 16 29
49 17 32
49 18 3
49 19 33
49 20 30
49 21 28
49 22 20
49 23 8
49 24 14
49 25 15
49 26 24
49 27 44
49 28 17
49 29 11
49 30 13
49 31 15
49 32 26
49 33 6
49 34 42
49 35 13
49 36 13
49 37 30
49 38 29
49 39 41
49 40 17
49 41 7
49 42 23
49 43 7
49 44 21
49 45 27
49 46 36
49 47 34
49 48 27
50 0 41
50 1 9
50 2 41
50 3 40
50 4 14
50 5 4
50 6 14
50 7 17
50 8 4
50 9 30
50 10 13
50 11 20
50 12 4
50 13 23
50 14 1
50 15 1
50 16 28
50 17 4
50 18 20
50 19 7
50 20 18
50 21 5
50 22 22
50 23 29
50 24 9
50 25 28
50 26 29
50 27 11
50 28 25
50 29 38
50 30 15
50 31 40
50 32 2
50 33 17
50 34 12
50 35 28
50 36 3
50 37 15
50 38 36
50 39 44
50 40 4
50 41 27
50 42 9
50 43 37
50 44 16
50 45 44
50 46 44
50 47 2
50 48 22
50 49 13
51 0 1
51 1 25
51 2 23
51 3 4
51 4 43
51 5 34
51 6 20
51 7 18
51 8 11
51 9 39
51 10 8
51 11 12
51 12 22
51 13 13
51 14 20
51 15 14
51 16 19
51 17 29
51 18 12
51 19 40
51 20 21
51 21 18
51 22 32
51 23 31
51 24 19
51 25 37
51 26 14
51 27 41
51 28 8
51 29 44
51 30 12
51 31 36
51 32 15
51 33 4
51 34 15
51 35 23
51 36 7
51 37 42
51 38 44
51 39 14
51 40 38
51 41 3
51 42 11
51 43 9
51 44 38
51 45 42
51 46 15
51 47 14
51 48 3
51 49 1
51 50 1
52 0 40
52 1 5
52 2 3
52 3 8
52 4 44
52 5 31
52 6 13
52 7 11
52 8 21
52 9 44
52 10 10
52 11 9
52 12 22
52 13 43
52 14 44
52 15 25
52 16 34
52 17 40
52 18 8
52 19 19
52 20 17
52 21 33
52 22 21
52 23 18
52 24 36
52 25 38
52 26 27
52 27 13
52 28 11
52 29 13
52 30 1
52 31 23
52 32 2
52 33 40
52 34 34
52 35 38
52 36 5
52 37 20
52 38 24
52 39 42
52 40 33
52 41 1
52 42 3
52 43 27
52 44 37
52 45 11
52 46 17
52 47 38
52 48 35
52 49 39
52 50 10
52 51 17
53 0 14
53 1 3
53 2 38
53 3 27
53 4 10
53 5 10
53 6 24
53 7 35
53 8 30
53 9 13
53 10 12
53 11 34
53 12 18
53 13 1
53 14 25
53 15 42
53 16 14
53 17 10
53 18 23
53 19 18
53 20 41
53 21 14
53 22 42
53 23 21
53 24 42
53 25 34
53 26 6
53 27 16
53 28 43
53 29 41
53 30 32
53 31 43
53 32 22
53 33 19
53 34 4
53 35 29
53 36 29
53 37 25
53 38 25
53 39 33
53 40 37
53 41 33
53 42 31
53 43 42
53 44 34
53 45 5
53 46 38
53 47 42
53 48 25
53 49 12
53 50 30
53 51 8
53 52 11
54 0 7
54 1 19
54 2 1
54 3 30
54 4 1
54 5 44
54 6 10
54 7 14
54 8 28
54 9 4
54 10 20
54 11 43
54 12 17
54 13 2
54 14 34
54 15 18
54 16 41
54 17 7
54 18 1
54 19 29
54 20 22
54 21 29
54 22 2
54 23 18
54 24 40
54 25 17
54 26 10
54 27 25
54 28 3
54 29 6
54 30 44
54 31 2
54 32 20
54 33 4
54 34 7
54 35 24
54 36 34
54 37 26
54 38 7
54 39 20
54 40 41
54 41 30
54 42 29
54 43 24
54 44 41
54 45 35
54 46 4
54 47 36
54 48 10
54 49 17
54 50 43
54 51 35
54 52 41
54 53 34
55 0 17
55 1 10
55 2 28
55 3 15
55 4 21
55 5 30
55 6 37
55 7 31
55 8 12
55 9 33
55 10 13
55 11 33
55 12 2
55 13 37
55 14 30
55 15 19
55 16 41
55 17 27
55 18 24
55 19 33
55 20 26
55 21 33
55 22 6
55 23 26
55 24 8
55 25 18
55 26 39
55 27 2
55 28 43
55 29 29
55 30 28
55 31 9
55 32 2
55 33 35
55 34 30
55 35 13
55 36 15
55 37 6
55 38 4
55 39 35
55 40 29
55 41 43
55 42 23
55 43 18
55 44 30
55 45 28
55 46 40
55 47 44
55 48 40
55 49 29
55 50 26
55 51 20
55 52 39
55 53 40
55 54 26
56 0 38
56 1 29
56 2 39
56 3 12
56 4 24
56 5 43
56 6 23
56 7 39
56 8 24
56 9 26
56 10 16
56 11 42
56 12 13
56 13 38
56 14 40
56 15 6
56 16 26
56 17 24
56 18 23
56 19 10
56 20 11
56 21 15
56 22 37
56 23 20
56 24 32
56 25 27
56 26 9
56 27 2
56 28 44
56 29 17
56 30 10
56 31 44
56 32 11
56 33 26
56 34 7
56 35 14
56 36 6
56 37 44
56 38 18
56 39 6
56 40 36
56 41 18
56 42 37
56 43 29
56 44 40
56 45 5
56 46 37
56 47 29
56 48 44
56 49 29
56 50 15
56 51 13
56 52 33
56 53 8
56 54 7
56 55 37
57 0 4
57 1 11
57 2 25
57 3 13
57 4 24
57 5 33
57 6 30
57 7 27
57 8 30
57 9 8
57 10 14
57 11 44
57 12 34
57 13 31
57 14 10
57 15 26
57 16 28
57 17 14
57 18 42
57 19 24
57 20 7
57 21 28
57 22 28
57 23 9
57 24 32
57 25 20
57 26 33
57 27 39
57 28 27
57 29 31
57 30 10
57 31 28
57 32 24
57 33 7
57 34 34
57 35 31
57 36 14
57 37 34
57 38 8
57 39 40
57 40 17
57 41 5
57 42 33
57 43 37
57 44 8
57 45 37
57 46 37
57 47 34
57 48 6
57 49 7
57 50 6
57 51 30
57 52 32
57 53 42
57 54 39
57 55 32
57 56 10
58 0 36
58 1 10
58 2 3
58 3 40
58 4 17
58 5 25
58 6 40
58 7 29
58 8 22
58 9 32
58 10 5
58 11 25
58 12 6
58 13 23
58 14 43
58 15 38
58 16 12
58 17 7
58 18 23
58 19 43
58 20 40
58 21 41
58 22 41
58 23 1
58 24 10
58 25 28
58 26 37
58 27 34
58 28 10
58 29 6
58 30 5
58 31 39
58 32 20
58 33 27
58 34 12
58 35 44
58 36 3
58 37 28
58 38 35
58 39 2
58 40 28
58 41 3
58 42 17
58 43 32
58 44 37
58 45 22
58 46 5
58 47 2
58 48 6
58 49 24
58 50 16
58 51 27
58 52 27
58 53 9
58 54 33
58 55 28
58 56 38
58 57 25
59 0 3
59 1 6
59 2 29
59 3 38
59 4 33
59 5 38
59 6 24
59 7 5
59 8 36
59 9 30
59 10 29
59 11 37
59 12 3
59 13 22
59 14 33
59 15 14
59 16 41
59 17 12
59 18 32
59 19 37
59 20 17
59 21 9
59 22 17
59 23 10
59 24 38
59 25 19
59 26 15
59 27 15
59 28 32
59 29 42
59 30 42
59 31 38
59 32 11
59 33 13
59 34 6
59 35 25
59 36 43
59 37 14
59 38 6
59 39 12
59 40 21
59 41 4
59 42 22
59 43 27
59 44 26
59 45 43
59 46 14
59 47 40
59 48 8
59 49 41
59 50 1
59 51 12
59 52 6
59 53 1
59 54 18
59 55 1
59 56 9
59 57 29
59 58 35
60 0 2
60 1 32
60 2 27
60 3 21
60 4 18
60 5 26
60 6 17
60 7 28
60 8 34
60 9 31
60 10 11
60 11 35
60 12 2
60 13 2
60 14 38
60 15 44
60 16 19
60 17 42
60 18 24
60 19 31
60 20 5
60 21 11
60 22 23
60 23 39
60 24 26
60 25 20
60 26 29
60 27 35
60 28 3
60 29 37
60 30 23
60 31 22
60 32 1
60 33 28
60 34 42
60 35 1
60 36 43
60 37 8
60 38 12
60 39 39
60 40 2
60 41 41
60 42 30
60 43 4
60 44 36
60 45 33
60 46 2
60 47 7
60 48 36
60 49 39
60 50 26
60 51 28
60 52 8
60 53 16
60 54 9
60 55 42
60 56 30
60 57 34
60 58 32
60 59 42
61 0 43
61 1 44
61 2 10
61 3 13
61 4 6
61 5 33
61 6 5
61 7 17
61 8 12
61 9 23
61 10 24
61 11 34
61 12 1
61 13 7
61 14 27
61 15 4
61 16 20
61 17 40
61 18 11
61 19 3
61 20 18
61 21 39
61 22 32
61 23 34
61 24 17
61 25 17
61 26 13
61 27 35
61 28 20
61 29 20
61 30 16
61 31 25
61 32 38
61 33 8
61 34 43
61 35 40
61 36 13
61 37 15
61 38 41
61 39 43
61 40 2
61 41 1
61 42 27
61 43 43
61 44 21
61 45 7
61 46 4
61 47 1
61 48 13
61 49 17
61 50 23
61 51 18
61 52 41
61 53 30
61 54 35
61 55 11
61 56 42
61 57 20
61 58 21
61 59 25
61 60 3
62 0 7
62 1 11
62 2 7
62 3 15
62 4 33
62 5 1
62 6 18
62 7 24
62 8 11
62 9 3
62 10 21
62 11 3
62 12 26
62 13 27
62 14 19
62 15 17
62 16 9
62 17 7
62 18 26
62 19 11
62 20 7
62 21 26
62 22 5
62 23 13
62 24 36
62 25 44
62 26 5
62 27 5
62 28 16
62 29 30
62 30 17
62 31 33
62 32 24
62 33 29
62 34 28
62 35 25
62 36 19
62 37 31
62 38 37
62 39 8
62 40 16
62 41 1
62 42 11
62 43 5
62 44 5
62 45 27
62 46 40
62 47 36
62 48 39
62 49 2
62 50 31
62 51 33
62 52 36
62 53 30
62 54 32
62 55 26
62 56 7
62 57 41
62 58 44
62 59 11
62 60 10
62 61 12
63 0 1
63 1 42
63 2 30
63 3 18
63 4 32
63 5 13
63 6 36
63 7 21
63 8 32
63 9 28
63 10 6
63 11 7
63 12 1
63 13 3
63 14 1
63 15 19
63 16 23
63 17 4
63 18 20
63 19 1
63 20 40
63 21 37
63 22 6
63 23 30
63 24 2
63 25 6
63 26 18
63 27 21
63 28 24
63 29 35
63 30 41
63 31 40
63 32 14
63 33 18
63 34 28
63 35 1
63 36 31
63 37 37
63 38 43
63 39 39
63 40 25
63 41 26
63 42 7
63 43 32
63 44 12
63 45 42
63 46 35
63 47 40
63 48 10
63 49 34
63 50 18
63 51 23
63 52 43
63 53 8
63 54 25
63 55 6
63 56 29
63 57 23
63 58 30
63 59 43
63 60 42
63 61 13
63 62 29
64 0 32
64 1 34
64 2 1
64 3 44
64 4 29
64 5 30
64 6 10
64 7 39
64 8 32
64 9 15
64 10 1
64 11 30
64 12 39
64 13 36
64 14 39
64 15 23
64 16 31
64 17 19
64 18 31
64 19 3
64 20 9
64 21 16
64 22 3
64 23 34
64 24 12
64 25 19
64 26 25
64 27 42
64 28 10
64 29 25
64 30 22
64 31 23
64 32 13
64 33 2
64 34 1
64 35 18
64 36 8
64 37 14
64 38 3
64 39 4
64 40 42
64 41 7
64 42 6
64 43 5
64 44 35
64 45 16
64 46 10
64 47 16
64 48 23
64 49 21
64 50 1
64 51 1
64 52 40
64 53 34
64 54 23
64 55 11
64 56 2
64 57 44
64 58 20
64 59 32
64 60 20
64 61 15
64 62 15
64 63 42
65 0 28
65 1 22
65 2 1
65 3 5
65 4 7
65 5 14
65 6 32
65 7 2
65 8 33
65 9 29
65 10 25
65 11 27
65 12 24
65 13 1
65 14 21
65 15 10
65 16 1
65 17 5
65 18 11
65 19 32
65 20 32
65 21 32
65 22 10
65 23 29
65 24 6
65 25 18
65 26 30
65 27 18
65 28 19
65 29 18
65 30 42
65 31 16
65 32 13
65 33 34
65 34 39
65 35 18
65 36 43
65 37 39
65 38 13
65 39 38
65 40 25
65 41 27
65 42 10
65 43 23
65 44 14
65 45 37
65 46 18
65 47 5
65 48 38
65 49 7
65 50 8
65 51 3
65 52 44
65 53 2
65 54 29
65 55 26
65 56 2
65 57 25
65 58 6
65 59 44
65 60 19
65 61 26
65 62 32
65 63 24
65 64 17
66 0 8
66 1 41
66 2 12
66 3 33
66 4 15
66 5 27
66 6 31
66 7 7
66 8 20
66 9 20
66 10 1
66 11 12
66 12 14
66 13 4
66 14 36
66 15 35
66 16 42
66 17 5
66 18 32
66 19 20
66 20 19
66 21 4
66 22 41
66 23 1
66 24 35
66 25 5
66 26 19
66 27 13
66 28 43
66 29 17
66 30 16
66 31 22
66 32 18
66 33 38
66 34 39
66 35 20
66 36 25
66 37 14
66 38 13
66 39 27
66 40 36
66 41 1
66 42 25
66 43 31
66 44 41
66 45 37
66 46 14
66 47 29
66 48 38
66 49 30
66 50 41
66 51 4
66 52 39
66 53 23
66 54 20
66 55 10
66 56 16
66 57 16
66 58 14
66 59 22
66 60 16
66 61 40
66 62 5
66 63 41
66 64 43
66 65 37
67 0 3
67 1 41
67 2 30
67 3 39
67 4 26
67 5 16
67 6 43
67 7 6
67 8 21
67 9 43
67 10 33
67 11 15
67 12 18
67 13 17
67 14 40
67 15 3
67 16 36
67 17 12
67 18 18
67 19 38
67 20 15
67 21 29
67 22 2
67 23 3
67 24 13
67 25 6
67 26 38
67 27 29
67 28 9
67 29 25
67 30 32
67 31 23
67 32 40
67 33 38
67 34 18
67 35 28
67 36 7
67 37 11
67 38 22
67 39 22
67 40 17
67 41 28
67 42 37
67 43 29
67 44 9
67 45 2
67 46 7
67 47 40
67 48 3
67 49 36
67 50 17
67 51 39
67 52 33
67 53 10
67 54 24
67 55 40
67 56 31
67 57 39
67 58 20
67 59 17
67 60 24
67 61 42
67 62 18
67 63 1
67 64 13
67 65 40
67 66 30
68 0 35
68 1 37
68 2 23
68 3 32
68 4 14
68 5 40
68 6 16
68 7 38
68 8 10
68 9 27
68 10 41
68 11 17
68 12 16
68 13 15
68 14 41
68 15 9
68 16 11
68 17 12
68 18 35
68 19 9
68 20 8
68 21 43
68 22 10
68 23 18
68 24 11
68 25 10
68 26 15
68 27 8
68 28 3
68 29 17
68 30 26
68 31 10
68 32 21
68 33 7
68 34 38
68 35 14
68 36 17
68 37 44
68 38 5
68 39 29
68 40 39
68 41 43
68 42 23
68 43 25
68 44 6
68 45 41
68 46 14
68 47 33
68 48 26
68 49 23
68 50 7
68 51 16
68 52 28
68 53 13
68 54 13
68 55 40
68 56 35
68 57 42
68 58 29
68 59 7
68 60 38
68 61 6
68 62 23
68 63 42
68 64 34
68 65 41
68 66 22
68 67 31
